x = 20;
y = 11;
c = 82;
n = 64;

p = [90  37  67  57  93  58  82  66  53  71  72  75  32  96  17  20  59  86  34  42  61  85  44  26  32  14  36  19  93  35  98  37  71  95  42  40  34  96  16  45  23  19  23  11  79  26  79  47  83  84  91  31  54  88  97  94  71  57  99  14  72  36  16  71];
w = [10  3  8  2  8  7  1  9  3  6  4  4  3  5  3  2  9  1  3  1  3  2  6  7  3  4  10  2  8  2  8  5  6  2  8  9  2  8  3  8  10  8  3  1  5  9  8  5  6  5  9  2  2  2  3  9  5  10  6  2  9  4  5  2];
s = [3  1  10  3  10  9  6  4  4  3  9  7  8  1  11  7  1  5  9  3  2  11  9  1  11  9  9  11  2  4  7  4  8  9  4  9  6  11  5  9  5  6  5  7  5  4  4  1  6  7  2  1  11  4  9  10  10  9  3  6  5  9  11  11];
